
Gurobi 7.0.2 (win64) logging started 06/27/20 09:18:41

Read LP format model from file C:\George\Professor\Pesquisa\Orientacoes em Pos-graduacao\2019 MSC PPGCC Guilherme Figueroa\Fanjuls Solver\Results\I_150_20_S_1-9_1_MTZ_KB.lp
Reading time = 2.70 seconds
: 28840 rows, 456151 columns, 1863020 nonzeros
Optimize a model with 28840 rows, 456151 columns and 1863020 nonzeros
Variable types: 3151 continuous, 453000 integer (453000 binary)
Coefficient statistics:
  Matrix range     [1e+00, 2e+02]
  Objective range  [1e+00, 1e+00]
  Bounds range     [1e+00, 1e+00]
  RHS range        [1e+00, 1e+02]
Presolve time: 4.61s
Presolved: 28840 rows, 456151 columns, 1863020 nonzeros
Variable types: 150 continuous, 456001 integer (456000 binary)
Found heuristic solution: objective 8421.0000000
Found heuristic solution: objective 8411.0000000

Root simplex log...

Iteration    Objective       Primal Inf.    Dual Inf.      Time
       0    0.0000000e+00   3.000000e+02   0.000000e+00     11s
    4034    8.5504472e-05   2.273475e+03   0.000000e+00     15s
    5870    1.2385536e-04   2.125005e+03   0.000000e+00     20s
    7910    1.5739647e-04   1.892210e+03   0.000000e+00     25s
    9684    2.3693175e-04   3.144557e+03   0.000000e+00     30s
   12019    4.3993478e-04   2.958246e+03   0.000000e+00     35s
   13809    7.2525001e-04   3.609168e+03   0.000000e+00     40s
   18289    1.1072765e-03   8.733373e+03   0.000000e+00     45s
   23152    1.6463757e-03   3.500047e+03   0.000000e+00     50s
   29858    2.7768591e-03   1.134536e+04   0.000000e+00     55s
   36703    4.4984573e-03   1.651508e+04   0.000000e+00     60s
   47069    4.5262699e-02   1.189896e+05   0.000000e+00     65s
   54288    5.1398092e+01   1.234970e+03   0.000000e+00     70s
   58058    5.7381663e+01   6.654923e+02   0.000000e+00     75s
   59997    5.8786555e+01   7.320975e+02   0.000000e+00     81s
   61099    5.9185834e+01   2.729122e+02   0.000000e+00     86s
   61970    5.9371248e+01   1.359277e+02   0.000000e+00     91s
   62809    5.9638529e+01   3.657514e+02   0.000000e+00     95s
   63538    5.9740929e+01   3.722836e+02   0.000000e+00    101s
   64013    5.9804316e+01   3.156318e+01   0.000000e+00    105s
   64608    5.9863184e+01   7.052297e+00   0.000000e+00    111s
   65100    5.9873111e+01   9.388827e+00   0.000000e+00    116s
   65547    5.9874052e+01   0.000000e+00   0.000000e+00    120s
   65583    5.9872389e+01   0.000000e+00   0.000000e+00    120s

Root relaxation: objective 5.987239e+01, 65583 iterations, 108.86 seconds

    Nodes    |    Current Node    |     Objective Bounds      |     Work
 Expl Unexpl |  Obj  Depth IntInf | Incumbent    BestBd   Gap | It/Node Time

     0     0   59.87239    0  293 8411.00000   59.87239  99.3%     -  124s
H    0     0                      69.0000000   59.87239  13.2%     -  286s
     0     0   59.93747    0  341   69.00000   59.93747  13.1%     -  334s
     0     0   59.93747    0  296   69.00000   59.93747  13.1%     -  457s
     0     0   60.00000    0  415   69.00000   60.00000  13.0%     -  596s
     0     0   60.00000    0  425   69.00000   60.00000  13.0%     -  600s
     0     0   60.00000    0  481   69.00000   60.00000  13.0%     -  651s
     0     0   60.00000    0  545   69.00000   60.00000  13.0%     -  684s
     0     0   60.00733    0  415   69.00000   60.00733  13.0%     -  709s
     0     0   60.01106    0  427   69.00000   60.01106  13.0%     -  711s
     0     0   60.03681    0  417   69.00000   60.03681  13.0%     -  717s
     0     0   60.03752    0  435   69.00000   60.03752  13.0%     -  718s
     0     0   60.04106    0  439   69.00000   60.04106  13.0%     -  725s
     0     0   60.04308    0  420   69.00000   60.04308  13.0%     -  727s
     0     0   60.05415    0  466   69.00000   60.05415  13.0%     -  732s
     0     0   60.05593    0  450   69.00000   60.05593  13.0%     -  734s
     0     0   60.06987    0  482   69.00000   60.06987  12.9%     -  739s
     0     0   60.06987    0  482   69.00000   60.06987  12.9%     -  740s
     0     0   60.07313    0  501   69.00000   60.07313  12.9%     -  745s
     0     0   60.07339    0  495   69.00000   60.07339  12.9%     -  746s
     0     0   60.07497    0  501   69.00000   60.07497  12.9%     -  749s
     0     0   60.07497    0  501   69.00000   60.07497  12.9%     -  750s
     0     0   60.07695    0  495   69.00000   60.07695  12.9%     -  753s
     0     0   60.07720    0  509   69.00000   60.07720  12.9%     -  754s
     0     0   60.07720    0  509   69.00000   60.07720  12.9%     -  756s
     0     0   60.07927    0  523   69.00000   60.07927  12.9%     -  758s
     0     0   60.08469    0  479   69.00000   60.08469  12.9%     -  762s
     0     0   60.08554    0  484   69.00000   60.08554  12.9%     -  763s
     0     0   60.08960    0  486   69.00000   60.08960  12.9%     -  766s
     0     0   60.08960    0  486   69.00000   60.08960  12.9%     -  767s
     0     0   60.09429    0  495   69.00000   60.09429  12.9%     -  770s
     0     0   60.09429    0  495   69.00000   60.09429  12.9%     -  771s
     0     0   60.10218    0  504   69.00000   60.10218  12.9%     -  774s
     0     0   60.10274    0  500   69.00000   60.10274  12.9%     -  775s
     0     0   60.10323    0  492   69.00000   60.10323  12.9%     -  778s
     0     0   60.10328    0  496   69.00000   60.10328  12.9%     -  778s
     0     0   60.10331    0  491   69.00000   60.10331  12.9%     -  781s
     0     0   60.10331    0  491   69.00000   60.10331  12.9%     -  782s
     0     0   60.10331    0  491   69.00000   60.10331  12.9%     -  784s
     0     0   60.10617    0  491   69.00000   60.10617  12.9%     -  786s
     0     0   60.10617    0  482   69.00000   60.10617  12.9%     -  791s
     0     0   60.10650    0  504   69.00000   60.10650  12.9%     -  792s
     0     0   60.10650    0  507   69.00000   60.10650  12.9%     -  797s
     0     0   60.10650    0  507   69.00000   60.10650  12.9%     -  797s
     0     0   60.10650    0  507   69.00000   60.10650  12.9%     -  802s
     0     0   60.10650    0  508   69.00000   60.10650  12.9%     -  803s
     0     0   60.10650    0  504   69.00000   60.10650  12.9%     -  809s
     0     0   60.10650    0  504   69.00000   60.10650  12.9%     -  810s
     0     0   60.10650    0  504   69.00000   60.10650  12.9%     -  816s
     0     0   61.00000    0  207   69.00000   61.00000  11.6%     - 1308s
     0     0   61.00000    0  207   69.00000   61.00000  11.6%     - 1361s
     0     2   61.00000    0  207   69.00000   61.00000  11.6%     - 1395s
     1     4   61.00000    1  357   69.00000   61.00000  11.6%  9677 1447s
     2     5   61.00000    2  405   69.00000   61.00000  11.6%  5479 1484s
     3     5   61.00000    3  425   69.00000   61.00000  11.6%  4207 1517s
     4     6   61.00000    3  398   69.00000   61.00000  11.6%  3513 1539s
     5     7   61.00000    4  420   69.00000   61.00000  11.6%  3173 1558s
     6     8   61.00000    4  400   69.00000   61.00000  11.6%  2693 1562s
     7     9   61.00000    5  426   69.00000   61.00000  11.6%  2439 1577s
     8    10   61.00000    6  404   69.00000   61.00000  11.6%  2163 1582s
     9    11   61.00000    7  425   69.00000   61.00000  11.6%  2113 1600s
    10    12   61.00000    7  405   69.00000   61.00000  11.6%  2198 1624s
    11    13   61.00000    8  435   69.00000   61.00000  11.6%  2162 1644s
    12    14   61.00000    8  378   69.00000   61.00000  11.6%  2044 1650s
    13    15   61.00000    9  370   69.00000   61.00000  11.6%  1944 1655s
    14    16   61.00000    9  420   69.00000   61.00000  11.6%  1844 1669s
    15    17   61.00000   10  407   69.00000   61.00000  11.6%  1788 1678s
    16    18   61.00000   10  404   69.00000   61.00000  11.6%  1748 1688s
    17    19   61.00000   11  403   69.00000   61.00000  11.6%  1676 1697s
    18    20   61.00000   11  407   69.00000   61.00000  11.6%  1633 1706s
    19    21   61.00000   12  414   69.00000   61.00000  11.6%  1579 1713s
    20    22   61.00000   13  408   69.00000   61.00000  11.6%  1515 1717s
    21    23   61.00000   13  393   69.00000   61.00000  11.6%  1512 1727s
    22    24   61.00000   14  426   69.00000   61.00000  11.6%  1502 1737s
    23    24   61.00000   14  399   69.00000   61.00000  11.6%  1466 1744s
    24    25   61.00000   15  409   69.00000   61.00000  11.6%  1424 1751s
    25    26   61.00000   16  439   69.00000   61.00000  11.6%  1396 1761s
    26    27   61.00000   17  397   69.00000   61.00000  11.6%  1356 1765s
    27    28   61.00000   17  416   69.00000   61.00000  11.6%  1374 1774s
    28    29   61.00000   18  407   69.00000   61.00000  11.6%  1333 1779s
    29    30   61.00000   18  431   69.00000   61.00000  11.6%  1312 1784s
    30    31   61.00000   19  428   69.00000   61.00000  11.6%  1298 1791s
    31    32   61.00000   20  236   69.00000   61.00000  11.6%  1659 1819s
    32    33   61.00000   21  264   69.00000   61.00000  11.6%  1612 1822s
    33    34   61.00000   21  340   69.00000   61.00000  11.6%  1603 1829s
    34    35   61.00000   22  311   69.00000   61.00000  11.6%  1575 1833s
    35    36   61.00000   22  393   69.00000   61.00000  11.6%  1637 1851s
    36    37   61.00000   23  327   69.00000   61.00000  11.6%  1649 1859s
    37    38   61.00000   23  343   69.00000   61.00000  11.6%  1621 1865s
    39    39   61.05644   25  299   69.00000   61.00000  11.6%  1609 1879s
    40    40   61.00000   25  359   69.00000   61.00000  11.6%  1609 1888s
    41    41   61.00000   26  355   69.00000   61.00000  11.6%  1578 1890s
    43    43   61.00000   27  385   69.00000   61.00000  11.6%  1556 1898s
    44    44   61.00000   28  403   69.00000   61.00000  11.6%  1575 1906s
    45    45   61.00000   28  381   69.00000   61.00000  11.6%  1574 1911s
    46    46   61.00000   29  399   69.00000   61.00000  11.6%  1555 1915s
    47    47   61.00000   29  374   69.00000   61.00000  11.6%  1585 1926s
    48    48   61.00000   30  370   69.00000   61.00000  11.6%  1571 1930s
    49    49   61.00000   30  398   69.00000   61.00000  11.6%  1574 1935s
    50    50   61.00000   31  376   69.00000   61.00000  11.6%  1585 1942s
    52    52   61.00000   32  360   69.00000   61.00000  11.6%  1531 1945s
    54    54   61.00000   33  377   69.00000   61.00000  11.6%  1514 1952s
    55    54   61.25367   33  268   69.00000   61.00000  11.6%  1523 1961s
    56    54   61.04167   34  244   69.00000   61.00000  11.6%  1520 1965s
    59    55   61.02828   35  240   69.00000   61.00000  11.6%  1476 1970s
    60    56   62.00000   36  382   69.00000   61.00000  11.6%  1534 1995s
    61    57   62.00000   37  364   69.00000   61.00000  11.6%  1530 2005s
    62    58   62.00000   38  394   69.00000   61.00000  11.6%  1527 2012s
    63    59   62.00000   38  403   69.00000   61.00000  11.6%  1506 2019s
    64    60   62.00000   39  377   69.00000   61.00000  11.6%  1503 2031s
    65    61   62.00000   40  357   69.00000   61.00000  11.6%  1497 2038s
    66    62   62.00000   40  390   69.00000   61.00000  11.6%  1506 2048s
    67    63   62.00000   41  385   69.00000   61.00000  11.6%  1488 2051s
    69    65   62.00000   42  380   69.00000   61.00000  11.6%  1464 2056s
    70    66   62.00000   43  392   69.00000   61.00000  11.6%  1452 2061s
    71    67   62.00000   43  367   69.00000   61.00000  11.6%  1452 2067s
    72    68   62.00000   44  381   69.00000   61.00000  11.6%  1449 2074s
    73    69   62.00000   45  379   69.00000   61.00000  11.6%  1439 2078s
    74    70   62.00000   45  378   69.00000   61.00000  11.6%  1425 2080s
    75    71   62.00000   46  392   69.00000   61.00000  11.6%  1419 2086s
    77    72   62.00242   47  305   69.00000   61.00000  11.6%  1430 2097s
    78    73   62.00000   48  415   69.00000   61.00000  11.6%  1420 2101s
    80    75   62.00000   50  392   69.00000   61.00000  11.6%  1413 2111s
    81    75   62.16375   51  285   69.00000   61.00000  11.6%  1423 2117s
    83    76   63.00000   52  399   69.00000   61.00000  11.6%  1466 2138s
    84    77   63.00000   53  409   69.00000   61.00000  11.6%  1452 2142s
    86    79   63.00000   55  395   69.00000   61.00000  11.6%  1421 2145s
    87    80   63.00000   56  426   69.00000   61.00000  11.6%  1409 2150s
    89    82   63.00000   58  381   69.00000   61.00000  11.6%  1390 2156s
    92    85   63.00000   61  364   69.00000   61.00000  11.6%  1347 2160s
    93    86   63.00000   62  399   69.00000   61.00000  11.6%  1349 2165s
    95    88   63.00000   64  386   69.00000   61.00000  11.6%  1335 2172s
    96    89   63.00000   65  395   69.00000   61.00000  11.6%  1329 2176s
    98    91   63.00000   66  394   69.00000   61.00000  11.6%  1314 2180s
   101    93   63.00000   69  396   69.00000   61.00000  11.6%  1282 2185s
   103    95   63.00000   70  383   69.00000   61.00000  11.6%  1270 2191s
   104    96   63.00000   71  414   69.00000   61.00000  11.6%  1275 2196s
   106    98   63.00000   72  405   69.00000   61.00000  11.6%  1268 2202s
   109   101   63.00000   75  412   69.00000   61.00000  11.6%  1241 2206s
   112   102   63.00000   78  396   69.00000   61.00000  11.6%  1211 2210s
   116   106   63.00000   81  382   69.00000   61.00000  11.6%  1188 2219s
   117   106   63.00000   82  382   69.00000   61.00000  11.6%  1188 2223s
   119   108   63.00000   84  393   69.00000   61.00000  11.6%  1175 2227s
   122   111   63.00000   87  379   69.00000   61.00000  11.6%  1153 2231s
   125   111   63.15872   88  302   69.00000   61.00000  11.6%  1143 2236s
   126   111   64.00000   89  386   69.00000   61.00000  11.6%  1157 2245s
   131   115   64.00000   94  409   69.00000   61.00000  11.6%  1116 2250s
   140   121   64.00000  103  402   69.00000   61.00000  11.6%  1052 2258s
   141   122   64.00000  103  392   69.00000   61.00000  11.6%  1046 2261s
   146   127   64.00000  108  368   69.00000   61.00000  11.6%  1013 2265s
   148   128   64.00000  110  391   69.00000   61.00000  11.6%  1003 2270s
   151   130   65.02667  113  393   69.00000   61.00000  11.6%   988 2280s
   153   130   64.00000  114  413   69.00000   61.00000  11.6%   980 2285s
   157   134   64.00000  117  383   69.00000   61.00000  11.6%   964 2290s
   160   137   64.00000  120  359   69.00000   61.00000  11.6%   956 2296s
   163   140   64.00000  122  342   69.00000   61.00000  11.6%   944 2300s
   169   145   64.00000  127  357   69.00000   61.00000  11.6%   920 2305s
   176   150   64.02421  132  299   69.00000   61.00000  11.6%   894 2310s
   178   150   65.00000  133  347   69.00000   61.00000  11.6%   894 2315s
   183   153   65.00000  137  361   69.00000   61.00000  11.6%   874 2321s
   193   159   65.00000  147  358   69.00000   61.00000  11.6%   830 2326s
   208   165   65.00000  162  337   69.00000   61.00000  11.6%   774 2331s
   215   168   65.00000  168  352   69.00000   61.00000  11.6%   754 2335s
   225   173   65.00000  176  337   69.00000   61.00000  11.6%   727 2340s
   236   180   66.00000  186  302   69.00000   61.00000  11.6%   702 2345s
   249   184   66.00000  199  317   69.00000   61.00000  11.6%   669 2350s
   263   193   66.00000  212  297   69.00000   61.00000  11.6%   641 2355s
   273   197   67.00000  221  264   69.00000   61.00000  11.6%   624 2360s
   290   200   68.00000  236  307   69.00000   61.00000  11.6%   594 2365s
   302   203   61.00000    1  389   69.00000   61.00000  11.6%   584 2392s
   303   204   61.00000    2  464   69.00000   61.00000  11.6%   591 2412s
   304   205   61.00000    3  464   69.00000   61.00000  11.6%   598 2428s
   306   207   61.00000    4  519   69.00000   61.00000  11.6%   616 2474s
   307   208   61.00000    4  488   69.00000   61.00000  11.6%   619 2485s
   309   210   61.00000    6  492   69.00000   61.00000  11.6%   622 2504s
   310   211   61.00000    7  480   69.00000   61.00000  11.6%   623 2513s
   313   214   61.00000   10  287   69.00000   61.00000  11.6%   675 2553s
   314   215   61.00000   11  371   69.00000   61.00000  11.6%   675 2566s
   315   216   61.00000   11  351   69.00000   61.00000  11.6%   675 2574s
   316   217   61.00000   12  440   69.00000   61.00000  11.6%   679 2584s
   317   218   61.00000   12  392   69.00000   61.00000  11.6%   682 2593s
   318   219   61.00000   13  435   69.00000   61.00000  11.6%   684 2601s
   319   220   61.00000   13  438   69.00000   61.00000  11.6%   685 2608s
   320   221   61.00000   14  449   69.00000   61.00000  11.6%   684 2612s
   321   222   61.00000   15  453   69.00000   61.00000  11.6%   686 2618s
   322   223   61.00000   16  465   69.00000   61.00000  11.6%   691 2630s
   324   225   61.00000   17  483   69.00000   61.00000  11.6%   691 2637s
   325   226   61.00000   18  494   69.00000   61.00000  11.6%   692 2642s
   327   228   61.00000   19  496   69.00000   61.00000  11.6%   693 2651s
   328   229   61.00000   20  241   69.00000   61.00000  11.6%   714 2668s
   329   230   61.00000   21  288   69.00000   61.00000  11.6%   713 2670s
   330   230   61.80458   22  330   69.00000   61.00000  11.6%   724 2691s
   332   232   61.00000   23  353   69.00000   61.00000  11.6%   722 2696s
   334   234   61.00000   25  406   69.00000   61.00000  11.6%   722 2703s
   335   235   61.00000   25  371   69.00000   61.00000  11.6%   722 2707s
   337   237   61.00000   26  392   69.00000   61.00000  11.6%   722 2711s
   339   239   61.00000   27  403   69.00000   61.00000  11.6%   722 2717s
   340   240   61.00000   28  380   69.00000   61.00000  11.6%   724 2721s
   342   241   61.03164   30  310   69.00000   61.00000  11.6%   724 2728s
   343   242   61.00000   30  398   69.00000   61.00000  11.6%   725 2732s
   345   244   61.00000   32  399   69.00000   61.00000  11.6%   724 2737s
   347   246   61.00000   33  405   69.00000   61.00000  11.6%   725 2743s
   348   247   62.00000   33  385   69.00000   61.00000  11.6%   727 2750s
   351   248   61.00124   35  327   69.00000   61.00000  11.6%   725 2755s
   352   249   62.00000   36  426   69.00000   61.00000  11.6%   739 2846s
   355   252   62.00000   39  383   69.00000   61.00000  11.6%   735 2853s
   356   253   62.00000   39  392   69.00000   61.00000  11.6%   736 2858s
   357   254   62.00000   40  384   69.00000   61.00000  11.6%   736 2862s
   358   255   62.00000   41  390   69.00000   61.00000  11.6%   735 2865s
   359   256   62.00000   42  396   69.00000   61.00000  11.6%   737 2871s
   360   257   62.00000   43  415   69.00000   61.00000  11.6%   738 2875s
   363   260   62.00000   46  426   69.00000   61.00000  11.6%   737 2884s
   364   260   62.36508   46  285   69.00000   61.00000  11.6%   742 2891s
   368   262   62.03283   48  296   69.00000   61.00000  11.6%   738 2896s
   369   263   63.00000   49  403   69.00000   61.00000  11.6%   752 2918s
   370   264   63.00000   50  417   69.00000   61.00000  11.6%   752 2925s
   372   266   63.00000   52  393   69.00000   61.00000  11.6%   749 2930s
   375   267   63.00000   53  393   69.00000   61.00000  11.6%   746 2936s
   377   269   63.00000   55  414   69.00000   61.00000  11.6%   744 2942s
   378   270   63.00000   55  411   69.00000   61.00000  11.6%   744 2946s
   380   272   63.00000   57  396   69.00000   61.00000  11.6%   742 2950s
   383   275   63.00000   59  413   69.00000   61.00000  11.6%   741 2960s
   385   277   63.00000   60  380   69.00000   61.00000  11.6%   740 2966s
   386   277   63.13714   61  263   69.00000   61.00000  11.6%   746 2974s
   387   278   63.00000   61  389   69.00000   61.00000  11.6%   744 2976s
   392   282   63.00000   66  402   69.00000   61.00000  11.6%   739 2981s
   395   283   63.00000   69  400   69.00000   61.00000  11.6%   735 2985s
   400   288   63.00000   74  397   69.00000   61.00000  11.6%   729 2991s
   402   290   65.00000   75  403   69.00000   61.00000  11.6%   727 2998s
   404   291   63.01143   76  314   69.00000   61.00000  11.6%   725 3000s
   406   291   64.00000   77  405   69.00000   61.00000  11.6%   729 3010s
   412   295   64.00000   83  387   69.00000   61.00000  11.6%   720 3017s
   413   296   64.00000   83  374   69.00000   61.00000  11.6%   720 3022s
   415   298   64.00000   85  382   69.00000   61.00000  11.6%   718 3026s
   417   300   64.00000   87  378   69.00000   61.00000  11.6%   717 3030s
   420   302   64.00000   88  380   69.00000   61.00000  11.6%   714 3037s
   424   306   64.00000   92  369   69.00000   61.00000  11.6%   709 3040s
   431   312   64.00000   99  372   69.00000   61.00000  11.6%   700 3045s
   434   313   64.00000  101  364   69.00000   61.00000  11.6%   698 3052s
   440   317   64.00000  107  361   69.00000   61.00000  11.6%   690 3055s
   445   320   64.72484  112  292   69.00000   61.00000  11.6%   686 3062s
   450   325   64.00000  116  360   69.00000   61.00000  11.6%   682 3065s
   456   326   65.00000  120  373   69.00000   61.00000  11.6%   681 3074s
   459   328   65.00000  123  358   69.00000   61.00000  11.6%   677 3076s
   470   336   65.00000  134  363   69.00000   61.00000  11.6%   663 3080s
   473   338   66.93013  135  271   69.00000   61.00000  11.6%   664 3088s
   475   339   65.00000  136  347   69.00000   61.00000  11.6%   664 3090s
   484   348   65.00000  145  340   69.00000   61.00000  11.6%   654 3095s
   495   353   65.00000  153  334   69.00000   61.00000  11.6%   644 3100s
   502   357   66.00000  159  333   69.00000   61.00000  11.6%   642 3109s
   504   358   66.00000  161  340   69.00000   61.00000  11.6%   641 3110s
   511   364   61.00000   26  341   69.00000   61.00000  11.6%   634 3434s
   513   365   68.00000  242  236   69.00000   61.00000  11.6%   631 3558s
   514   366   64.00000  118  507   69.00000   61.00000  11.6%   630 3586s

Cutting planes:
  Learned: 4
  Gomory: 5
  Implied bound: 1
  Clique: 6
  MIR: 39
  Flow cover: 156
  GUB cover: 1
  Zero half: 5

Explored 514 nodes (573235 simplex iterations) in 3610.04 seconds
Thread count was 1 (of 12 available processors)

Solution count 3: 69 8411 8421 
Pool objective bound 61

Time limit reached
Best objective 6.900000000000e+01, best bound 6.100000000000e+01, gap 11.5942%
